103 84 200 182 163 132 78 20 85 204 128 77 113 102 50 197 124 112 12 94 156 48 17 7 130 165 90 54 27 181 31 150 173 158 87 106 193 184 195 134 208 19 67 40 91 59 110 52 189 114 149 142 123 146 76 179 143 71 107 28 51 160 161 3 100 168 81 11 21 152 199 105 2 56 68 74 144 53 69 18 36 38 63 122 185 175 64 176 44 135 166 89 171 43 79 191 41 188 196 46 98 30 186 136 201 151 60 75 203 141 55 108 119 207 42 209 34 93 118 80 121 206 178 205 126 183 62 39 25 32 164 109 37 35 167 10 198 116 8 147 159 145 192 129 117 139 169 131 82 99 96 177 45 155 95 148 140 61 104 202 133 58 1 15 92 29 88 16 125 72 83 22 70 180 115 57 47 65 162 5 23 157 127 137 210 111 66 154 172 97 101 14 187 86 9 33 26 73 24 153 6 4 49 13 190 138 120 174 170 194 103